;; Automatically generated 35D closed-loop LQR CHC for eady
;; Note: Singleton initialization applied (all states start exactly at 0.0)
(set-logic HORN)

(declare-fun Inv (Real Real Real Real Real Real Real Real Real Real Real Real Real Real Real Real Real Real Real Real Real Real Real Real Real Real Real Real Real Real Real Real Real Real Real) Bool)

;; 1. Initialization
(assert
  (forall ((x0 Real) (x1 Real) (x2 Real) (x3 Real) (x4 Real) (x5 Real) (x6 Real) (x7 Real) (x8 Real) (x9 Real) (x10 Real) (x11 Real) (x12 Real) (x13 Real) (x14 Real) (x15 Real) (x16 Real) (x17 Real) (x18 Real) (x19 Real) (x20 Real) (x21 Real) (x22 Real) (x23 Real) (x24 Real) (x25 Real) (x26 Real) (x27 Real) (x28 Real) (x29 Real) (x30 Real) (x31 Real) (x32 Real) (x33 Real) (x34 Real))
    (=>
      (and
        (= x0 0.0)
        (= x1 0.0)
        (= x2 0.0)
        (= x3 0.0)
        (= x4 0.0)
        (= x5 0.0)
        (= x6 0.0)
        (= x7 0.0)
        (= x8 0.0)
        (= x9 0.0)
        (= x10 0.0)
        (= x11 0.0)
        (= x12 0.0)
        (= x13 0.0)
        (= x14 0.0)
        (= x15 0.0)
        (= x16 0.0)
        (= x17 0.0)
        (= x18 0.0)
        (= x19 0.0)
        (= x20 0.0)
        (= x21 0.0)
        (= x22 0.0)
        (= x23 0.0)
        (= x24 0.0)
        (= x25 0.0)
        (= x26 0.0)
        (= x27 0.0)
        (= x28 0.0)
        (= x29 0.0)
        (= x30 0.0)
        (= x31 0.0)
        (= x32 0.0)
        (= x33 0.0)
        (= x34 0.0)
      )
      (Inv x0 x1 x2 x3 x4 x5 x6 x7 x8 x9 x10 x11 x12 x13 x14 x15 x16 x17 x18 x19 x20 x21 x22 x23 x24 x25 x26 x27 x28 x29 x30 x31 x32 x33 x34)
    )
  )
)

;; 2. Transition (Closed-Loop Affine Step)
(assert
  (forall ((x0 Real) (x1 Real) (x2 Real) (x3 Real) (x4 Real) (x5 Real) (x6 Real) (x7 Real) (x8 Real) (x9 Real) (x10 Real) (x11 Real) (x12 Real) (x13 Real) (x14 Real) (x15 Real) (x16 Real) (x17 Real) (x18 Real) (x19 Real) (x20 Real) (x21 Real) (x22 Real) (x23 Real) (x24 Real) (x25 Real) (x26 Real) (x27 Real) (x28 Real) (x29 Real) (x30 Real) (x31 Real) (x32 Real) (x33 Real) (x34 Real)
           (x0_next Real) (x1_next Real) (x2_next Real) (x3_next Real) (x4_next Real) (x5_next Real) (x6_next Real) (x7_next Real) (x8_next Real) (x9_next Real) (x10_next Real) (x11_next Real) (x12_next Real) (x13_next Real) (x14_next Real) (x15_next Real) (x16_next Real) (x17_next Real) (x18_next Real) (x19_next Real) (x20_next Real) (x21_next Real) (x22_next Real) (x23_next Real) (x24_next Real) (x25_next Real) (x26_next Real) (x27_next Real) (x28_next Real) (x29_next Real) (x30_next Real) (x31_next Real) (x32_next Real) (x33_next Real) (x34_next Real))
    (=>
      (and
        (Inv x0 x1 x2 x3 x4 x5 x6 x7 x8 x9 x10 x11 x12 x13 x14 x15 x16 x17 x18 x19 x20 x21 x22 x23 x24 x25 x26 x27 x28 x29 x30 x31 x32 x33 x34)

        (= x0_next (+ (* 0.961077 x0) (+ (* -0.011706 x1) (+ (* 0.002292 x2) (+ (* -0.005175 x3) (+ (* -0.000096 x4) (+ (* -0.003915 x5) (+ (* -0.000847 x6) (+ (* -0.002856 x7) (+ (* -0.000607 x8) (+ (* -0.000412 x9) (+ (* -0.000370 x10) (+ (* -0.000388 x11) (+ (* -0.002423 x12) (+ (* -0.004625 x13) (+ (* -0.005053 x14) (+ (* -0.008849 x15) (+ (* -0.006565 x16) (+ (* -0.010879 x17) (+ (* -0.007091 x18) (+ (* -0.011010 x19) (+ (* -0.007174 x20) (+ (* -0.010022 x21) (+ (* -0.007133 x22) (+ (* -0.008495 x23) (+ (* -0.007064 x24) (+ (* -0.006787 x25) (+ (* -0.006957 x26) (+ (* -0.005109 x27) (+ (* -0.006781 x28) (+ (* -0.003573 x29) (+ (* -0.006555 x30) (+ (* -0.002180 x31) (+ (* -0.006408 x32) (+ (* -0.000668 x33) (* -0.007840 x34))))))))))))))))))))))))))))))))))))
        (= x1_next (+ (* 0.007610 x0) (+ (* 0.964595 x1) (+ (* -0.011709 x2) (+ (* 0.002295 x3) (+ (* -0.005290 x4) (+ (* 0.000032 x5) (+ (* -0.004012 x6) (+ (* -0.000239 x7) (+ (* -0.002817 x8) (+ (* 0.001481 x9) (+ (* -0.002006 x10) (+ (* 0.001034 x11) (+ (* -0.003663 x12) (+ (* -0.003545 x13) (+ (* -0.005992 x14) (+ (* -0.008036 x15) (+ (* -0.007261 x16) (+ (* -0.010290 x17) (+ (* -0.007579 x18) (+ (* -0.010618 x19) (+ (* -0.007476 x20) (+ (* -0.009809 x21) (+ (* -0.007260 x22) (+ (* -0.008453 x23) (+ (* -0.007022 x24) (+ (* -0.006914 x25) (+ (* -0.006744 x26) (+ (* -0.005411 x27) (+ (* -0.006388 x28) (+ (* -0.004061 x29) (+ (* -0.005966 x30) (+ (* -0.002876 x31) (+ (* -0.005596 x32) (+ (* -0.001608 x33) (* -0.006760 x34))))))))))))))))))))))))))))))))))))
        (= x2_next (+ (* -0.006391 x0) (+ (* 0.007335 x1) (+ (* 0.968861 x2) (+ (* -0.011706 x3) (+ (* 0.002179 x4) (+ (* -0.005162 x5) (+ (* -0.000065 x6) (+ (* -0.003404 x7) (+ (* -0.000200 x8) (+ (* -0.000729 x9) (+ (* -0.000113 x10) (+ (* -0.000602 x11) (+ (* -0.002241 x12) (+ (* -0.004784 x13) (+ (* -0.004912 x14) (+ (* -0.008976 x15) (+ (* -0.006449 x16) (+ (* -0.010986 x17) (+ (* -0.006991 x18) (+ (* -0.011106 x19) (+ (* -0.007083 x20) (+ (* -0.010111 x21) (+ (* -0.007046 x22) (+ (* -0.008580 x23) (+ (* -0.006980 x24) (+ (* -0.006872 x25) (+ (* -0.006871 x26) (+ (* -0.005198 x27) (+ (* -0.006690 x28) (+ (* -0.003668 x29) (+ (* -0.006455 x30) (+ (* -0.002287 x31) (+ (* -0.006292 x32) (+ (* -0.000795 x33) (* -0.007699 x34))))))))))))))))))))))))))))))))))))
        (= x3_next (+ (* 0.001078 x0) (+ (* -0.006666 x1) (+ (* 0.007332 x2) (+ (* 0.973383 x3) (+ (* -0.011821 x4) (+ (* 0.002307 x5) (+ (* -0.005259 x6) (+ (* 0.000543 x7) (+ (* -0.003365 x8) (+ (* 0.001887 x9) (+ (* -0.002323 x10) (+ (* 0.001290 x11) (+ (* -0.003876 x12) (+ (* -0.003362 x13) (+ (* -0.006151 x14) (+ (* -0.007895 x15) (+ (* -0.007388 x16) (+ (* -0.010174 x17) (+ (* -0.007687 x18) (+ (* -0.010517 x19) (+ (* -0.007571 x20) (+ (* -0.009718 x21) (+ (* -0.007348 x22) (+ (* -0.008367 x23) (+ (* -0.007107 x24) (+ (* -0.006830 x25) (+ (* -0.006829 x26) (+ (* -0.005325 x27) (+ (* -0.006477 x28) (+ (* -0.003969 x29) (+ (* -0.006062 x30) (+ (* -0.002775 x31) (+ (* -0.005703 x32) (+ (* -0.001492 x33) (* -0.006887 x34))))))))))))))))))))))))))))))))))))
        (= x4_next (+ (* -0.004116 x0) (+ (* 0.000803 x1) (+ (* -0.006668 x2) (+ (* 0.007335 x3) (+ (* 0.977751 x4) (+ (* -0.011694 x5) (+ (* 0.002210 x6) (+ (* -0.004651 x7) (+ (* 0.000582 x8) (+ (* -0.001277 x9) (+ (* 0.000293 x10) (+ (* -0.000920 x11) (+ (* -0.001984 x12) (+ (* -0.004998 x13) (+ (* -0.004730 x14) (+ (* -0.009135 x15) (+ (* -0.006308 x16) (+ (* -0.011113 x17) (+ (* -0.006875 x18) (+ (* -0.011213 x19) (+ (* -0.006982 x20) (+ (* -0.010206 x21) (+ (* -0.006955 x22) (+ (* -0.008669 x23) (+ (* -0.006894 x24) (+ (* -0.006957 x25) (+ (* -0.006786 x26) (+ (* -0.005283 x27) (+ (* -0.006604 x28) (+ (* -0.003756 x29) (+ (* -0.006363 x30) (+ (* -0.002383 x31) (+ (* -0.006191 x32) (+ (* -0.000903 x33) (* -0.007583 x34))))))))))))))))))))))))))))))))))))
        (= x5_next (+ (* -0.000169 x0) (+ (* -0.004391 x1) (+ (* 0.000801 x2) (+ (* -0.006666 x3) (+ (* 0.007219 x4) (+ (* 0.982046 x5) (+ (* -0.011791 x6) (+ (* 0.002818 x7) (+ (* -0.004612 x8) (+ (* 0.002670 x9) (+ (* -0.002871 x10) (+ (* 0.001697 x11) (+ (* -0.004194 x12) (+ (* -0.003105 x13) (+ (* -0.006365 x14) (+ (* -0.007713 x15) (+ (* -0.007547 x16) (+ (* -0.010033 x17) (+ (* -0.007814 x18) (+ (* -0.010401 x19) (+ (* -0.007678 x20) (+ (* -0.009617 x21) (+ (* -0.007443 x22) (+ (* -0.008276 x23) (+ (* -0.007195 x24) (+ (* -0.006744 x25) (+ (* -0.006914 x26) (+ (* -0.005240 x27) (+ (* -0.006562 x28) (+ (* -0.003883 x29) (+ (* -0.006150 x30) (+ (* -0.002684 x31) (+ (* -0.005798 x32) (+ (* -0.001391 x33) (* -0.006995 x34))))))))))))))))))))))))))))))))))))
        (= x6_next (+ (* -0.003334 x0) (+ (* -0.000444 x1) (+ (* -0.004393 x2) (+ (* 0.000803 x3) (+ (* -0.006781 x4) (+ (* 0.007347 x5) (+ (* 0.985597 x6) (+ (* -0.011183 x7) (+ (* 0.002857 x8) (+ (* -0.002525 x9) (+ (* 0.001076 x10) (+ (* -0.001467 x11) (+ (* -0.001578 x12) (+ (* -0.005315 x13) (+ (* -0.004473 x14) (+ (* -0.009349 x15) (+ (* -0.006125 x16) (+ (* -0.011272 x17) (+ (* -0.006734 x18) (+ (* -0.011340 x19) (+ (* -0.006866 x20) (+ (* -0.010313 x21) (+ (* -0.006855 x22) (+ (* -0.008764 x23) (+ (* -0.006802 x24) (+ (* -0.007045 x25) (+ (* -0.006700 x26) (+ (* -0.005368 x27) (+ (* -0.006519 x28) (+ (* -0.003841 x29) (+ (* -0.006277 x30) (+ (* -0.002471 x31) (+ (* -0.006100 x32) (+ (* -0.000998 x33) (* -0.007483 x34))))))))))))))))))))))))))))))))))))
        (= x7_next (+ (* -0.000717 x0) (+ (* -0.003609 x1) (+ (* -0.000447 x2) (+ (* -0.004391 x3) (+ (* 0.000688 x4) (+ (* -0.006654 x5) (+ (* 0.007250 x6) (+ (* 0.989235 x7) (+ (* -0.011144 x8) (+ (* 0.004945 x9) (+ (* -0.004119 x10) (+ (* 0.002479 x11) (+ (* -0.004742 x12) (+ (* -0.002699 x13) (+ (* -0.006683 x14) (+ (* -0.007456 x15) (+ (* -0.007761 x16) (+ (* -0.009851 x17) (+ (* -0.007973 x18) (+ (* -0.010260 x19) (+ (* -0.007805 x20) (+ (* -0.009501 x21) (+ (* -0.007551 x22) (+ (* -0.008175 x23) (+ (* -0.007291 x24) (+ (* -0.006652 x25) (+ (* -0.007002 x26) (+ (* -0.005154 x27) (+ (* -0.006647 x28) (+ (* -0.003799 x29) (+ (* -0.006235 x30) (+ (* -0.002598 x31) (+ (* -0.005887 x32) (+ (* -0.001300 x33) (* -0.007090 x34))))))))))))))))))))))))))))))))))))
        (= x8_next (+ (* -0.002927 x0) (+ (* -0.000992 x1) (+ (* -0.003611 x2) (+ (* -0.000444 x3) (+ (* -0.004506 x4) (+ (* 0.000815 x5) (+ (* -0.006751 x6) (+ (* 0.007858 x7) (+ (* 0.991680 x8) (+ (* -0.009056 x9) (+ (* 0.003351 x10) (+ (* -0.002715 x11) (+ (* -0.000795 x12) (+ (* -0.005863 x13) (+ (* -0.004066 x14) (+ (* -0.009666 x15) (+ (* -0.005868 x16) (+ (* -0.011486 x17) (+ (* -0.006551 x18) (+ (* -0.011499 x19) (+ (* -0.006725 x20) (+ (* -0.010440 x21) (+ (* -0.006738 x22) (+ (* -0.008871 x23) (+ (* -0.006702 x24) (+ (* -0.007140 x25) (+ (* -0.006609 x26) (+ (* -0.005456 x27) (+ (* -0.006433 x28) (+ (* -0.003926 x29) (+ (* -0.006193 x30) (+ (* -0.002556 x31) (+ (* -0.006014 x32) (+ (* -0.001086 x33) (* -0.007392 x34))))))))))))))))))))))))))))))))))))
        (= x9_next (+ (* -0.001035 x0) (+ (* -0.003202 x1) (+ (* -0.000995 x2) (+ (* -0.003609 x3) (+ (* -0.000560 x4) (+ (* -0.004379 x5) (+ (* 0.000718 x6) (+ (* -0.006143 x7) (+ (* 0.007897 x8) (+ (* 0.995614 x9) (+ (* -0.010650 x10) (+ (* 0.004754 x11) (+ (* -0.005989 x12) (+ (* -0.001917 x13) (+ (* -0.007231 x14) (+ (* -0.007050 x15) (+ (* -0.008078 x16) (+ (* -0.009594 x17) (+ (* -0.008187 x18) (+ (* -0.010077 x19) (+ (* -0.007964 x20) (+ (* -0.009360 x21) (+ (* -0.007678 x22) (+ (* -0.008059 x23) (+ (* -0.007398 x24) (+ (* -0.006552 x25) (+ (* -0.007097 x26) (+ (* -0.005063 x27) (+ (* -0.006735 x28) (+ (* -0.003713 x29) (+ (* -0.006320 x30) (+ (* -0.002513 x31) (+ (* -0.005971 x32) (+ (* -0.001214 x33) (* -0.007178 x34))))))))))))))))))))))))))))))))))))
        (= x10_next (+ (* -0.002671 x0) (+ (* -0.001310 x1) (+ (* -0.003205 x2) (+ (* -0.000992 x3) (+ (* -0.003724 x4) (+ (* -0.000432 x5) (+ (* -0.004476 x6) (+ (* 0.001326 x7) (+ (* -0.006104 x8) (+ (* 0.009985 x9) (+ (* 0.995397 x10) (+ (* -0.009247 x11) (+ (* 0.001480 x12) (+ (* -0.007111 x13) (+ (* -0.003284 x14) (+ (* -0.010214 x15) (+ (* -0.005462 x16) (+ (* -0.011804 x17) (+ (* -0.006294 x18) (+ (* -0.011713 x19) (+ (* -0.006543 x20) (+ (* -0.010599 x21) (+ (* -0.006598 x22) (+ (* -0.008998 x23) (+ (* -0.006586 x24) (+ (* -0.007248 x25) (+ (* -0.006508 x26) (+ (* -0.005551 x27) (+ (* -0.006342 x28) (+ (* -0.004014 x29) (+ (* -0.006106 x30) (+ (* -0.002641 x31) (+ (* -0.005929 x32) (+ (* -0.001171 x33) (* -0.007305 x34))))))))))))))))))))))))))))))))))))
        (= x11_next (+ (* -0.001249 x0) (+ (* -0.002945 x1) (+ (* -0.001312 x2) (+ (* -0.003202 x3) (+ (* -0.001108 x4) (+ (* -0.003597 x5) (+ (* -0.000529 x6) (+ (* -0.003868 x7) (+ (* 0.001365 x8) (+ (* -0.004016 x9) (+ (* 0.008391 x10) (+ (* 0.997808 x11) (+ (* -0.012521 x12) (+ (* 0.000359 x13) (+ (* -0.008478 x14) (+ (* -0.006267 x15) (+ (* -0.008626 x16) (+ (* -0.009187 x17) (+ (* -0.008504 x18) (+ (* -0.009821 x19) (+ (* -0.008178 x20) (+ (* -0.009178 x21) (+ (* -0.007837 x22) (+ (* -0.007918 x23) (+ (* -0.007525 x24) (+ (* -0.006436 x25) (+ (* -0.007204 x26) (+ (* -0.004962 x27) (+ (* -0.006830 x28) (+ (* -0.003621 x29) (+ (* -0.006408 x30) (+ (* -0.002427 x31) (+ (* -0.006056 x32) (+ (* -0.001129 x33) (* -0.007263 x34))))))))))))))))))))))))))))))))))))
        (= x12_next (+ (* -0.002488 x0) (+ (* -0.001524 x1) (+ (* -0.002948 x2) (+ (* -0.001310 x3) (+ (* -0.003317 x4) (+ (* -0.000980 x5) (+ (* -0.003694 x6) (+ (* 0.000079 x7) (+ (* -0.003829 x8) (+ (* 0.003453 x9) (+ (* -0.005610 x10) (+ (* 0.009794 x11) (+ (* 0.995259 x12) (+ (* -0.013642 x13) (+ (* -0.001009 x14) (+ (* -0.011462 x15) (+ (* -0.004680 x16) (+ (* -0.012352 x17) (+ (* -0.005888 x18) (+ (* -0.012031 x19) (+ (* -0.006286 x20) (+ (* -0.010813 x21) (+ (* -0.006415 x22) (+ (* -0.009157 x23) (+ (* -0.006445 x24) (+ (* -0.007375 x25) (+ (* -0.006392 x26) (+ (* -0.005658 x27) (+ (* -0.006241 x28) (+ (* -0.004109 x29) (+ (* -0.006015 x30) (+ (* -0.002729 x31) (+ (* -0.005843 x32) (+ (* -0.001256 x33) (* -0.007221 x34))))))))))))))))))))))))))))))))))))
        (= x13_next (+ (* -0.001408 x0) (+ (* -0.002763 x1) (+ (* -0.001526 x2) (+ (* -0.002946 x3) (+ (* -0.001425 x4) (+ (* -0.003190 x5) (+ (* -0.001077 x6) (+ (* -0.003086 x7) (+ (* 0.000118 x8) (+ (* -0.001741 x9) (+ (* 0.001859 x10) (+ (* -0.004206 x11) (+ (* 0.006520 x12) (+ (* 0.994655 x13) (+ (* -0.015010 x14) (+ (* -0.003992 x15) (+ (* -0.009874 x16) (+ (* -0.008405 x17) (+ (* -0.009052 x18) (+ (* -0.009414 x19) (+ (* -0.008496 x20) (+ (* -0.008921 x21) (+ (* -0.008051 x22) (+ (* -0.007736 x23) (+ (* -0.007684 x24) (+ (* -0.006295 x25) (+ (* -0.007331 x26) (+ (* -0.004846 x27) (+ (* -0.006937 x28) (+ (* -0.003521 x29) (+ (* -0.006503 x30) (+ (* -0.002336 x31) (+ (* -0.006145 x32) (+ (* -0.001043 x33) (* -0.007348 x34))))))))))))))))))))))))))))))))))))
        (= x14_next (+ (* -0.002347 x0) (+ (* -0.001683 x1) (+ (* -0.002765 x2) (+ (* -0.001524 x3) (+ (* -0.003061 x4) (+ (* -0.001298 x5) (+ (* -0.003287 x6) (+ (* -0.000469 x7) (+ (* -0.003047 x8) (+ (* 0.002206 x9) (+ (* -0.003335 x10) (+ (* 0.003263 x11) (+ (* -0.007481 x12) (+ (* 0.005399 x13) (+ (* 0.993653 x14) (+ (* -0.017993 x15) (+ (* -0.002405 x16) (+ (* -0.013599 x17) (+ (* -0.005106 x18) (+ (* -0.012579 x19) (+ (* -0.005879 x20) (+ (* -0.011131 x21) (+ (* -0.006158 x22) (+ (* -0.009371 x23) (+ (* -0.006262 x24) (+ (* -0.007534 x25) (+ (* -0.006251 x26) (+ (* -0.005785 x27) (+ (* -0.006125 x28) (+ (* -0.004217 x29) (+ (* -0.005915 x30) (+ (* -0.002824 x31) (+ (* -0.005752 x32) (+ (* -0.001344 x33) (* -0.007135 x34))))))))))))))))))))))))))))))))))))
        (= x15_next (+ (* -0.001535 x0) (+ (* -0.002622 x1) (+ (* -0.001685 x2) (+ (* -0.002763 x3) (+ (* -0.001639 x4) (+ (* -0.002933 x5) (+ (* -0.001395 x6) (+ (* -0.002679 x7) (+ (* -0.000430 x8) (+ (* -0.000959 x9) (+ (* 0.000612 x10) (+ (* -0.001931 x11) (+ (* -0.000012 x12) (+ (* -0.008602 x13) (+ (* 0.004031 x14) (+ (* 0.990926 x15) (+ (* -0.016405 x16) (+ (* -0.006130 x17) (+ (* -0.010300 x18) (+ (* -0.008632 x19) (+ (* -0.009044 x20) (+ (* -0.008514 x21) (+ (* -0.008368 x22) (+ (* -0.007479 x23) (+ (* -0.007898 x24) (+ (* -0.006112 x25) (+ (* -0.007490 x26) (+ (* -0.004705 x27) (+ (* -0.007064 x28) (+ (* -0.003405 x29) (+ (* -0.006611 x30) (+ (* -0.002235 x31) (+ (* -0.006240 x32) (+ (* -0.000952 x33) (* -0.007436 x34))))))))))))))))))))))))))))))))))))
        (= x16_next (+ (* -0.002231 x0) (+ (* -0.001810 x1) (+ (* -0.002624 x2) (+ (* -0.001683 x3) (+ (* -0.002878 x4) (+ (* -0.001512 x5) (+ (* -0.003030 x6) (+ (* -0.000787 x7) (+ (* -0.002640 x8) (+ (* 0.001658 x9) (+ (* -0.002553 x10) (+ (* 0.002015 x11) (+ (* -0.005206 x12) (+ (* -0.001133 x13) (+ (* -0.009970 x14) (+ (* 0.001048 x15) (+ (* 0.992692 x16) (+ (* -0.020131 x17) (+ (* -0.002831 x18) (+ (* -0.013826 x19) (+ (* -0.005097 x20) (+ (* -0.011679 x21) (+ (* -0.005752 x22) (+ (* -0.009689 x23) (+ (* -0.006006 x24) (+ (* -0.007748 x25) (+ (* -0.006069 x26) (+ (* -0.005944 x27) (+ (* -0.005984 x28) (+ (* -0.004344 x29) (+ (* -0.005799 x30) (+ (* -0.002932 x31) (+ (* -0.005651 x32) (+ (* -0.001440 x33) (* -0.007043 x34))))))))))))))))))))))))))))))))))))
        (= x17_next (+ (* -0.001642 x0) (+ (* -0.002506 x1) (+ (* -0.001812 x2) (+ (* -0.002622 x3) (+ (* -0.001798 x4) (+ (* -0.002751 x5) (+ (* -0.001609 x6) (+ (* -0.002422 x7) (+ (* -0.000748 x8) (+ (* -0.000552 x9) (+ (* 0.000064 x10) (+ (* -0.001149 x11) (+ (* -0.001259 x12) (+ (* -0.006327 x13) (+ (* -0.002501 x14) (+ (* -0.012953 x15) (+ (* 0.002635 x16) (+ (* 0.989089 x17) (+ (* -0.016831 x18) (+ (* -0.006357 x19) (+ (* -0.010291 x20) (+ (* -0.007732 x21) (+ (* -0.008916 x22) (+ (* -0.007072 x23) (+ (* -0.008215 x24) (+ (* -0.005855 x25) (+ (* -0.007704 x26) (+ (* -0.004523 x27) (+ (* -0.007223 x28) (+ (* -0.003264 x29) (+ (* -0.006738 x30) (+ (* -0.002119 x31) (+ (* -0.006347 x32) (+ (* -0.000851 x33) (* -0.007532 x34))))))))))))))))))))))))))))))))))))
        (= x18_next (+ (* -0.002130 x0) (+ (* -0.001917 x1) (+ (* -0.002508 x2) (+ (* -0.001810 x3) (+ (* -0.002737 x4) (+ (* -0.001671 x5) (+ (* -0.002848 x6) (+ (* -0.001001 x7) (+ (* -0.002383 x8) (+ (* 0.001340 x9) (+ (* -0.002146 x10) (+ (* 0.001467 x11) (+ (* -0.004424 x12) (+ (* -0.002380 x13) (+ (* -0.007695 x14) (+ (* -0.005484 x15) (+ (* -0.011365 x16) (+ (* -0.001090 x17) (+ (* 0.992472 x18) (+ (* -0.020358 x19) (+ (* -0.002822 x20) (+ (* -0.012926 x21) (+ (* -0.004970 x22) (+ (* -0.010237 x23) (+ (* -0.005599 x24) (+ (* -0.008065 x25) (+ (* -0.005812 x26) (+ (* -0.006158 x27) (+ (* -0.005802 x28) (+ (* -0.004503 x29) (+ (* -0.005658 x30) (+ (* -0.003059 x31) (+ (* -0.005535 x32) (+ (* -0.001547 x33) (* -0.006943 x34))))))))))))))))))))))))))))))))))))
        (= x19_next (+ (* -0.001738 x0) (+ (* -0.002405 x1) (+ (* -0.001920 x2) (+ (* -0.002506 x3) (+ (* -0.001925 x4) (+ (* -0.002610 x5) (+ (* -0.001768 x6) (+ (* -0.002240 x7) (+ (* -0.000962 x8) (+ (* -0.000296 x9) (+ (* -0.000254 x10) (+ (* -0.000743 x11) (+ (* -0.001807 x12) (+ (* -0.005545 x13) (+ (* -0.003748 x14) (+ (* -0.010678 x15) (+ (* -0.003896 x16) (+ (* -0.015091 x17) (+ (* 0.002210 x18) (+ (* 0.989001 x19) (+ (* -0.016823 x20) (+ (* -0.005457 x21) (+ (* -0.010164 x22) (+ (* -0.006290 x23) (+ (* -0.008763 x24) (+ (* -0.005449 x25) (+ (* -0.008022 x26) (+ (* -0.004266 x27) (+ (* -0.007437 x28) (+ (* -0.003081 x29) (+ (* -0.006897 x30) (+ (* -0.001978 x31) (+ (* -0.006474 x32) (+ (* -0.000735 x33) (* -0.007639 x34))))))))))))))))))))))))))))))))))))
        (= x20_next (+ (* -0.002039 x0) (+ (* -0.002012 x1) (+ (* -0.002408 x2) (+ (* -0.001917 x3) (+ (* -0.002621 x4) (+ (* -0.001798 x5) (+ (* -0.002707 x6) (+ (* -0.001160 x7) (+ (* -0.002201 x8) (+ (* 0.001126 x9) (+ (* -0.001890 x10) (+ (* 0.001150 x11) (+ (* -0.004017 x12) (+ (* -0.002928 x13) (+ (* -0.006913 x14) (+ (* -0.006731 x15) (+ (* -0.009090 x16) (+ (* -0.007622 x17) (+ (* -0.011791 x18) (+ (* -0.001317 x19) (+ (* 0.992569 x20) (+ (* -0.019458 x21) (+ (* -0.002694 x22) (+ (* -0.011484 x23) (+ (* -0.004817 x24) (+ (* -0.008613 x25) (+ (* -0.005405 x26) (+ (* -0.006476 x27) (+ (* -0.005545 x28) (+ (* -0.004717 x29) (+ (* -0.005475 x30) (+ (* -0.003218 x31) (+ (* -0.005394 x32) (+ (* -0.001674 x33) (* -0.006827 x34))))))))))))))))))))))))))))))))))))
        (= x21_next (+ (* -0.001826 x0) (+ (* -0.002314 x1) (+ (* -0.002015 x2) (+ (* -0.002405 x3) (+ (* -0.002032 x4) (+ (* -0.002494 x5) (+ (* -0.001895 x6) (+ (* -0.002099 x7) (+ (* -0.001121 x8) (+ (* -0.000113 x9) (+ (* -0.000468 x10) (+ (* -0.000486 x11) (+ (* -0.002125 x12) (+ (* -0.005138 x13) (+ (* -0.004296 x14) (+ (* -0.009896 x15) (+ (* -0.005144 x16) (+ (* -0.012816 x17) (+ (* -0.004322 x18) (+ (* -0.015318 x19) (+ (* 0.002218 x20) (+ (* 0.989950 x21) (+ (* -0.016695 x22) (+ (* -0.004015 x23) (+ (* -0.010011 x24) (+ (* -0.004667 x25) (+ (* -0.008570 x26) (+ (* -0.003859 x27) (+ (* -0.007755 x28) (+ (* -0.002824 x29) (+ (* -0.007111 x30) (+ (* -0.001796 x31) (+ (* -0.006633 x32) (+ (* -0.000594 x33) (* -0.007766 x34))))))))))))))))))))))))))))))))))))
        (= x22_next (+ (* -0.001953 x0) (+ (* -0.002100 x1) (+ (* -0.002317 x2) (+ (* -0.002013 x3) (+ (* -0.002521 x4) (+ (* -0.001905 x5) (+ (* -0.002591 x6) (+ (* -0.001287 x7) (+ (* -0.002060 x8) (+ (* 0.000967 x9) (+ (* -0.001707 x10) (+ (* 0.000936 x11) (+ (* -0.003761 x12) (+ (* -0.003246 x13) (+ (* -0.006506 x14) (+ (* -0.007279 x15) (+ (* -0.008308 x16) (+ (* -0.008869 x17) (+ (* -0.009516 x18) (+ (* -0.007848 x19) (+ (* -0.011783 x20) (+ (* -0.000417 x21) (+ (* 0.992713 x22) (+ (* -0.018016 x23) (+ (* -0.002542 x24) (+ (* -0.009861 x25) (+ (* -0.004623 x26) (+ (* -0.007024 x27) (+ (* -0.005138 x28) (+ (* -0.005034 x29) (+ (* -0.005218 x30) (+ (* -0.003432 x31) (+ (* -0.005212 x32) (+ (* -0.001833 x33) (* -0.006686 x34))))))))))))))))))))))))))))))))))))
        (= x23_next (+ (* -0.001911 x0) (+ (* -0.002228 x1) (+ (* -0.002103 x2) (+ (* -0.002314 x3) (+ (* -0.002128 x4) (+ (* -0.002393 x5) (+ (* -0.002002 x6) (+ (* -0.001983 x7) (+ (* -0.001248 x8) (+ (* 0.000028 x9) (+ (* -0.000627 x10) (+ (* -0.000303 x11) (+ (* -0.002339 x12) (+ (* -0.004882 x13) (+ (* -0.004614 x14) (+ (* -0.009489 x15) (+ (* -0.005692 x16) (+ (* -0.012034 x17) (+ (* -0.005570 x18) (+ (* -0.013042 x19) (+ (* -0.004314 x20) (+ (* -0.014418 x21) (+ (* 0.002346 x22) (+ (* 0.991379 x23) (+ (* -0.016542 x24) (+ (* -0.002392 x25) (+ (* -0.009817 x26) (+ (* -0.003077 x27) (+ (* -0.008303 x28) (+ (* -0.002418 x29) (+ (* -0.007428 x30) (+ (* -0.001539 x31) (+ (* -0.006847 x32) (+ (* -0.000411 x33) (* -0.007925 x34))))))))))))))))))))))))))))))))))))
        (= x24_next (+ (* -0.001868 x0) (+ (* -0.002185 x1) (+ (* -0.002230 x2) (+ (* -0.002101 x3) (+ (* -0.002429 x4) (+ (* -0.002001 x5) (+ (* -0.002490 x6) (+ (* -0.001394 x7) (+ (* -0.001944 x8) (+ (* 0.000840 x9) (+ (* -0.001566 x10) (+ (* 0.000777 x11) (+ (* -0.003578 x12) (+ (* -0.003460 x13) (+ (* -0.006249 x14) (+ (* -0.007597 x15) (+ (* -0.007901 x16) (+ (* -0.009417 x17) (+ (* -0.008734 x18) (+ (* -0.009096 x19) (+ (* -0.009508 x20) (+ (* -0.006949 x21) (+ (* -0.011655 x22) (+ (* 0.001025 x23) (+ (* 0.992821 x24) (+ (* -0.016392 x25) (+ (* -0.002348 x26) (+ (* -0.008271 x27) (+ (* -0.004356 x28) (+ (* -0.005582 x29) (+ (* -0.004812 x30) (+ (* -0.003749 x31) (+ (* -0.004955 x32) (+ (* -0.002047 x33) (* -0.006503 x34))))))))))))))))))))))))))))))))))))
        (= x25_next (+ (* -0.001996 x0) (+ (* -0.002143 x1) (+ (* -0.002188 x2) (+ (* -0.002228 x3) (+ (* -0.002216 x4) (+ (* -0.002302 x5) (+ (* -0.002097 x6) (+ (* -0.001882 x7) (+ (* -0.001355 x8) (+ (* 0.000144 x9) (+ (* -0.000754 x10) (+ (* -0.000162 x11) (+ (* -0.002498 x12) (+ (* -0.004699 x13) (+ (* -0.004828 x14) (+ (* -0.009233 x15) (+ (* -0.006009 x16) (+ (* -0.011627 x17) (+ (* -0.006118 x18) (+ (* -0.012260 x19) (+ (* -0.005561 x20) (+ (* -0.012143 x21) (+ (* -0.004186 x22) (+ (* -0.012976 x23) (+ (* 0.002498 x24) (+ (* 0.992919 x25) (+ (* -0.016349 x26) (+ (* -0.000802 x27) (+ (* -0.009550 x28) (+ (* -0.001636 x29) (+ (* -0.007976 x30) (+ (* -0.001133 x31) (+ (* -0.007165 x32) (+ (* -0.000155 x33) (* -0.008139 x34))))))))))))))))))))))))))))))))))))
        (= x26_next (+ (* -0.001782 x0) (+ (* -0.002270 x1) (+ (* -0.002146 x2) (+ (* -0.002186 x3) (+ (* -0.002343 x4) (+ (* -0.002089 x5) (+ (* -0.002399 x6) (+ (* -0.001489 x7) (+ (* -0.001843 x8) (+ (* 0.000733 x9) (+ (* -0.001450 x10) (+ (* 0.000650 x11) (+ (* -0.003437 x12) (+ (* -0.003619 x13) (+ (* -0.006067 x14) (+ (* -0.007811 x15) (+ (* -0.007645 x16) (+ (* -0.009735 x17) (+ (* -0.008327 x18) (+ (* -0.009644 x19) (+ (* -0.008726 x20) (+ (* -0.008196 x21) (+ (* -0.009380 x22) (+ (* -0.005507 x23) (+ (* -0.011502 x24) (+ (* 0.002648 x25) (+ (* 0.992884 x26) (+ (* -0.014803 x27) (+ (* -0.002081 x28) (+ (* -0.006830 x29) (+ (* -0.004030 x30) (+ (* -0.004297 x31) (+ (* -0.004548 x32) (+ (* -0.002365 x33) (* -0.006247 x34))))))))))))))))))))))))))))))))))))
        (= x27_next (+ (* -0.002084 x0) (+ (* -0.002057 x1) (+ (* -0.002273 x2) (+ (* -0.002143 x3) (+ (* -0.002301 x4) (+ (* -0.002216 x5) (+ (* -0.002186 x6) (+ (* -0.001791 x7) (+ (* -0.001450 x8) (+ (* 0.000245 x9) (+ (* -0.000861 x10) (+ (* -0.000046 x11) (+ (* -0.002625 x12) (+ (* -0.004558 x13) (+ (* -0.004987 x14) (+ (* -0.009050 x15) (+ (* -0.006223 x16) (+ (* -0.011370 x17) (+ (* -0.006435 x18) (+ (* -0.011854 x19) (+ (* -0.006109 x20) (+ (* -0.011361 x21) (+ (* -0.005433 x22) (+ (* -0.010701 x23) (+ (* -0.004033 x24) (+ (* -0.011352 x25) (+ (* 0.002692 x26) (+ (* 0.994312 x27) (+ (* -0.016082 x28) (+ (* 0.000639 x29) (+ (* -0.009224 x30) (+ (* -0.000350 x31) (+ (* -0.007713 x32) (+ (* 0.000252 x33) (* -0.008456 x34))))))))))))))))))))))))))))))))))))
        (= x28_next (+ (* -0.001691 x0) (+ (* -0.002359 x1) (+ (* -0.002060 x2) (+ (* -0.002271 x3) (+ (* -0.002259 x4) (+ (* -0.002174 x5) (+ (* -0.002313 x6) (+ (* -0.001578 x7) (+ (* -0.001752 x8) (+ (* 0.000637 x9) (+ (* -0.001349 x10) (+ (* 0.000542 x11) (+ (* -0.003321 x12) (+ (* -0.003746 x13) (+ (* -0.005926 x14) (+ (* -0.007970 x15) (+ (* -0.007462 x16) (+ (* -0.009949 x17) (+ (* -0.008071 x18) (+ (* -0.009961 x19) (+ (* -0.008319 x20) (+ (* -0.008744 x21) (+ (* -0.008598 x22) (+ (* -0.006754 x23) (+ (* -0.009227 x24) (+ (* -0.003883 x25) (+ (* -0.011309 x26) (+ (* 0.004238 x27) (+ (* 0.992863 x28) (+ (* -0.013361 x29) (+ (* -0.001755 x30) (+ (* -0.005545 x31) (+ (* -0.003766 x32) (+ (* -0.002913 x33) (* -0.005840 x34))))))))))))))))))))))))))))))))))))
        (= x29_next (+ (* -0.002179 x0) (+ (* -0.001966 x1) (+ (* -0.002361 x2) (+ (* -0.002057 x3) (+ (* -0.002386 x4) (+ (* -0.002131 x5) (+ (* -0.002271 x6) (+ (* -0.001705 x7) (+ (* -0.001539 x8) (+ (* 0.000336 x9) (+ (* -0.000957 x10) (+ (* 0.000054 x11) (+ (* -0.002732 x12) (+ (* -0.004442 x13) (+ (* -0.005114 x14) (+ (* -0.008909 x15) (+ (* -0.006382 x16) (+ (* -0.011188 x17) (+ (* -0.006649 x18) (+ (* -0.011597 x19) (+ (* -0.006427 x20) (+ (* -0.010954 x21) (+ (* -0.005981 x22) (+ (* -0.009919 x23) (+ (* -0.005281 x24) (+ (* -0.009077 x25) (+ (* -0.003840 x26) (+ (* -0.009763 x27) (+ (* 0.002959 x28) (+ (* 0.995338 x29) (+ (* -0.015755 x30) (+ (* 0.001925 x31) (+ (* -0.008960 x32) (+ (* 0.001034 x33) (* -0.009004 x34))))))))))))))))))))))))))))))))))))
        (= x30_next (+ (* -0.001590 x0) (+ (* -0.002454 x1) (+ (* -0.001968 x2) (+ (* -0.002359 x3) (+ (* -0.002172 x4) (+ (* -0.002259 x5) (+ (* -0.002228 x6) (+ (* -0.001662 x7) (+ (* -0.001666 x8) (+ (* 0.000549 x9) (+ (* -0.001258 x10) (+ (* 0.000447 x11) (+ (* -0.003220 x12) (+ (* -0.003853 x13) (+ (* -0.005810 x14) (+ (* -0.008097 x15) (+ (* -0.007321 x16) (+ (* -0.010108 x17) (+ (* -0.007888 x18) (+ (* -0.010175 x19) (+ (* -0.008062 x20) (+ (* -0.009062 x21) (+ (* -0.008191 x22) (+ (* -0.007302 x23) (+ (* -0.008445 x24) (+ (* -0.005131 x25) (+ (* -0.009034 x26) (+ (* -0.002294 x27) (+ (* -0.011042 x28) (+ (* 0.005679 x29) (+ (* 0.992595 x30) (+ (* -0.012076 x31) (+ (* -0.001491 x32) (+ (* -0.004160 x33) (* -0.005058 x34))))))))))))))))))))))))))))))))))))
        (= x31_next (+ (* -0.002287 x0) (+ (* -0.001865 x1) (+ (* -0.002457 x2) (+ (* -0.001966 x3) (+ (* -0.002474 x4) (+ (* -0.002045 x5) (+ (* -0.002355 x6) (+ (* -0.001620 x7) (+ (* -0.001624 x8) (+ (* 0.000422 x9) (+ (* -0.001045 x10) (+ (* 0.000145 x11) (+ (* -0.002828 x12) (+ (* -0.004341 x13) (+ (* -0.005221 x14) (+ (* -0.008793 x15) (+ (* -0.006509 x16) (+ (* -0.011047 x17) (+ (* -0.006808 x18) (+ (* -0.011415 x19) (+ (* -0.006641 x20) (+ (* -0.010697 x21) (+ (* -0.006299 x22) (+ (* -0.009512 x23) (+ (* -0.005829 x24) (+ (* -0.008295 x25) (+ (* -0.005087 x26) (+ (* -0.007488 x27) (+ (* -0.003573 x28) (+ (* -0.008321 x29) (+ (* 0.003285 x30) (+ (* 0.995779 x31) (+ (* -0.015492 x32) (+ (* 0.003309 x33) (* -0.010252 x34))))))))))))))))))))))))))))))))))))
        (= x32_next (+ (* -0.001474 x0) (+ (* -0.002561 x1) (+ (* -0.001868 x2) (+ (* -0.002454 x3) (+ (* -0.002081 x4) (+ (* -0.002347 x5) (+ (* -0.002142 x6) (+ (* -0.001747 x7) (+ (* -0.001581 x8) (+ (* 0.000464 x9) (+ (* -0.001172 x10) (+ (* 0.000359 x11) (+ (* -0.003129 x12) (+ (* -0.003949 x13) (+ (* -0.005709 x14) (+ (* -0.008204 x15) (+ (* -0.007205 x16) (+ (* -0.010235 x17) (+ (* -0.007747 x18) (+ (* -0.010334 x19) (+ (* -0.007880 x20) (+ (* -0.009276 x21) (+ (* -0.007935 x22) (+ (* -0.007620 x23) (+ (* -0.008039 x24) (+ (* -0.005679 x25) (+ (* -0.008252 x26) (+ (* -0.003541 x27) (+ (* -0.008767 x28) (+ (* -0.000852 x29) (+ (* -0.010715 x30) (+ (* 0.006965 x31) (+ (* 0.991667 x32) (+ (* -0.010692 x33) (* -0.002783 x34))))))))))))))))))))))))))))))))))))
        (= x33_next (+ (* -0.002414 x0) (+ (* -0.001749 x1) (+ (* -0.002564 x2) (+ (* -0.001865 x3) (+ (* -0.002569 x4) (+ (* -0.001954 x5) (+ (* -0.002444 x6) (+ (* -0.001534 x7) (+ (* -0.001708 x8) (+ (* 0.000507 x9) (+ (* -0.001130 x10) (+ (* 0.000232 x11) (+ (* -0.002916 x12) (+ (* -0.004250 x13) (+ (* -0.005316 x14) (+ (* -0.008692 x15) (+ (* -0.006616 x16) (+ (* -0.010931 x17) (+ (* -0.006935 x18) (+ (* -0.011274 x19) (+ (* -0.006800 x20) (+ (* -0.010515 x21) (+ (* -0.006513 x22) (+ (* -0.009255 x23) (+ (* -0.006146 x24) (+ (* -0.007889 x25) (+ (* -0.005635 x26) (+ (* -0.006706 x27) (+ (* -0.004820 x28) (+ (* -0.006046 x29) (+ (* -0.003246 x30) (+ (* -0.007036 x31) (+ (* 0.003549 x32) (+ (* 0.995500 x33) (* -0.016784 x34))))))))))))))))))))))))))))))))))))
        (= x34_next (+ (* -0.001333 x0) (+ (* -0.002688 x1) (+ (* -0.001752 x2) (+ (* -0.002562 x3) (+ (* -0.001981 x4) (+ (* -0.002442 x5) (+ (* -0.002051 x6) (+ (* -0.001836 x7) (+ (* -0.001495 x8) (+ (* 0.000379 x9) (+ (* -0.001087 x10) (+ (* 0.000274 x11) (+ (* -0.003043 x12) (+ (* -0.004037 x13) (+ (* -0.005618 x14) (+ (* -0.008300 x15) (+ (* -0.007105 x16) (+ (* -0.010342 x17) (+ (* -0.007631 x18) (+ (* -0.010461 x19) (+ (* -0.007739 x20) (+ (* -0.009435 x21) (+ (* -0.007752 x22) (+ (* -0.007834 x23) (+ (* -0.007782 x24) (+ (* -0.005996 x25) (+ (* -0.007845 x26) (+ (* -0.004089 x27) (+ (* -0.007985 x28) (+ (* -0.002100 x29) (+ (* -0.008440 x30) (+ (* 0.000433 x31) (+ (* -0.010452 x32) (+ (* 0.008349 x33) (* 0.988082 x34))))))))))))))))))))))))))))))))))))
      )
      (Inv x0_next x1_next x2_next x3_next x4_next x5_next x6_next x7_next x8_next x9_next x10_next x11_next x12_next x13_next x14_next x15_next x16_next x17_next x18_next x19_next x20_next x21_next x22_next x23_next x24_next x25_next x26_next x27_next x28_next x29_next x30_next x31_next x32_next x33_next x34_next)
    )
  )
)

;; 3. Safety Query (Actuator Saturation > 12.0V or < -12.0V)
(assert
  (forall ((x0 Real) (x1 Real) (x2 Real) (x3 Real) (x4 Real) (x5 Real) (x6 Real) (x7 Real) (x8 Real) (x9 Real) (x10 Real) (x11 Real) (x12 Real) (x13 Real) (x14 Real) (x15 Real) (x16 Real) (x17 Real) (x18 Real) (x19 Real) (x20 Real) (x21 Real) (x22 Real) (x23 Real) (x24 Real) (x25 Real) (x26 Real) (x27 Real) (x28 Real) (x29 Real) (x30 Real) (x31 Real) (x32 Real) (x33 Real) (x34 Real))
    (=>
      (and
        (Inv x0 x1 x2 x3 x4 x5 x6 x7 x8 x9 x10 x11 x12 x13 x14 x15 x16 x17 x18 x19 x20 x21 x22 x23 x24 x25 x26 x27 x28 x29 x30 x31 x32 x33 x34)
        (or
          (> (+ (* -0.191072 x0) (+ (* -0.218538 x1) (+ (* -0.218812 x2) (+ (* -0.218575 x3) (+ (* -0.230094 x4) (+ (* -0.217369 x5) (+ (* -0.227053 x6) (+ (* -0.166247 x7) (+ (* -0.162353 x8) (+ (* 0.046426 x9) (+ (* -0.112973 x10) (+ (* 0.027384 x11) (+ (* -0.300070 x12) (+ (* -0.412181 x13) (+ (* -0.548956 x14) (+ (* -0.847272 x15) (+ (* -0.688491 x16) (+ (* -1.061050 x17) (+ (* -0.731089 x18) (+ (* -1.083725 x19) (+ (* -0.730240 x20) (+ (* -0.993753 x21) (+ (* -0.717479 x22) (+ (* -0.849547 x23) (+ (* -0.702205 x24) (+ (* -0.687201 x25) (+ (* -0.682857 x26) (+ (* -0.528257 x27) (+ (* -0.656158 x28) (+ (* -0.384101 x29) (+ (* -0.623493 x30) (+ (* -0.255573 x31) (+ (* -0.597149 x32) (+ (* -0.117126 x33) (* -0.726312 x34))))))))))))))))))))))))))))))))))) 12.0)
          (< (+ (* -0.191072 x0) (+ (* -0.218538 x1) (+ (* -0.218812 x2) (+ (* -0.218575 x3) (+ (* -0.230094 x4) (+ (* -0.217369 x5) (+ (* -0.227053 x6) (+ (* -0.166247 x7) (+ (* -0.162353 x8) (+ (* 0.046426 x9) (+ (* -0.112973 x10) (+ (* 0.027384 x11) (+ (* -0.300070 x12) (+ (* -0.412181 x13) (+ (* -0.548956 x14) (+ (* -0.847272 x15) (+ (* -0.688491 x16) (+ (* -1.061050 x17) (+ (* -0.731089 x18) (+ (* -1.083725 x19) (+ (* -0.730240 x20) (+ (* -0.993753 x21) (+ (* -0.717479 x22) (+ (* -0.849547 x23) (+ (* -0.702205 x24) (+ (* -0.687201 x25) (+ (* -0.682857 x26) (+ (* -0.528257 x27) (+ (* -0.656158 x28) (+ (* -0.384101 x29) (+ (* -0.623493 x30) (+ (* -0.255573 x31) (+ (* -0.597149 x32) (+ (* -0.117126 x33) (* -0.726312 x34))))))))))))))))))))))))))))))))))) -12.0)
        )
      )
      false
    )
  )
)

(check-sat)
(get-model)
